# Objective value = 4.6959237343852726e+02
x0_1 1
x0_2 1
x0_3 1
x0_4 0
x0_5 0
x0_6 0
x0_7 1
x0_8 0
x0_9 0
x0_10 0
x0_11 1
x0_12 1
x0_13 1
x0_14 0
x0_15 0
x0_16 0
x0_17 1
x0_18 0
x0_19 1
x0_20 0
x0_21 1
x0_22 0
x0_23 0
x0_24 0
x0_25 0
x0_26 0
x0_27 0
x0_28 0
x0_29 0
x0_30 0
x0_31 0
x0_32 0
x0_33 0
x1_2 1
x1_3 1
x1_4 0
x1_5 0
x1_6 0
x1_7 1
x1_8 0
x1_9 0
x1_10 0
x1_11 1
x1_12 1
x1_13 1
x1_14 0
x1_15 0
x1_16 0
x1_17 1
x1_18 0
x1_19 1
x1_20 0
x1_21 1
x1_22 0
x1_23 0
x1_24 0
x1_25 0
x1_26 0
x1_27 0
x1_28 0
x1_29 0
x1_30 0
x1_31 0
x1_32 0
x1_33 0
x2_3 1
x2_4 0
x2_5 0
x2_6 0
x2_7 1
x2_8 0
x2_9 0
x2_10 0
x2_11 1
x2_12 1
x2_13 1
x2_14 0
x2_15 0
x2_16 0
x2_17 1
x2_18 0
x2_19 1
x2_20 0
x2_21 1
x2_22 0
x2_23 0
x2_24 0
x2_25 0
x2_26 0
x2_27 0
x2_28 0
x2_29 0
x2_30 0
x2_31 0
x2_32 0
x2_33 0
x3_4 0
x3_5 0
x3_6 0
x3_7 1
x3_8 0
x3_9 0
x3_10 0
x3_11 1
x3_12 1
x3_13 1
x3_14 0
x3_15 0
x3_16 0
x3_17 1
x3_18 0
x3_19 1
x3_20 0
x3_21 1
x3_22 0
x3_23 0
x3_24 0
x3_25 0
x3_26 0
x3_27 0
x3_28 0
x3_29 0
x3_30 0
x3_31 0
x3_32 0
x3_33 0
x4_5 1
x4_6 1
x4_7 0
x4_8 0
x4_9 0
x4_10 1
x4_11 0
x4_12 0
x4_13 0
x4_14 0
x4_15 0
x4_16 1
x4_17 0
x4_18 0
x4_19 0
x4_20 0
x4_21 0
x4_22 0
x4_23 0
x4_24 0
x4_25 0
x4_26 0
x4_27 0
x4_28 0
x4_29 0
x4_30 0
x4_31 0
x4_32 0
x4_33 0
x5_6 1
x5_7 0
x5_8 0
x5_9 0
x5_10 1
x5_11 0
x5_12 0
x5_13 0
x5_14 0
x5_15 0
x5_16 1
x5_17 0
x5_18 0
x5_19 0
x5_20 0
x5_21 0
x5_22 0
x5_23 0
x5_24 0
x5_25 0
x5_26 0
x5_27 0
x5_28 0
x5_29 0
x5_30 0
x5_31 0
x5_32 0
x5_33 0
x6_7 0
x6_8 0
x6_9 0
x6_10 1
x6_11 0
x6_12 0
x6_13 0
x6_14 0
x6_15 0
x6_16 1
x6_17 0
x6_18 0
x6_19 0
x6_20 0
x6_21 0
x6_22 0
x6_23 0
x6_24 0
x6_25 0
x6_26 0
x6_27 0
x6_28 0
x6_29 0
x6_30 0
x6_31 0
x6_32 0
x6_33 0
x7_8 0
x7_9 0
x7_10 0
x7_11 1
x7_12 1
x7_13 1
x7_14 0
x7_15 0
x7_16 0
x7_17 1
x7_18 0
x7_19 1
x7_20 0
x7_21 1
x7_22 0
x7_23 0
x7_24 0
x7_25 0
x7_26 0
x7_27 0
x7_28 0
x7_29 0
x7_30 0
x7_31 0
x7_32 0
x7_33 0
x8_9 1
x8_10 0
x8_11 0
x8_12 0
x8_13 0
x8_14 1
x8_15 1
x8_16 0
x8_17 0
x8_18 1
x8_19 0
x8_20 1
x8_21 0
x8_22 1
x8_23 0
x8_24 0
x8_25 0
x8_26 1
x8_27 0
x8_28 0
x8_29 1
x8_30 1
x8_31 0
x8_32 1
x8_33 1
x9_10 0
x9_11 0
x9_12 0
x9_13 0
x9_14 1
x9_15 1
x9_16 0
x9_17 0
x9_18 1
x9_19 0
x9_20 1
x9_21 0
x9_22 1
x9_23 0
x9_24 0
x9_25 0
x9_26 1
x9_27 0
x9_28 0
x9_29 1
x9_30 1
x9_31 0
x9_32 1
x9_33 1
x10_11 0
x10_12 0
x10_13 0
x10_14 0
x10_15 0
x10_16 1
x10_17 0
x10_18 0
x10_19 0
x10_20 0
x10_21 0
x10_22 0
x10_23 0
x10_24 0
x10_25 0
x10_26 0
x10_27 0
x10_28 0
x10_29 0
x10_30 0
x10_31 0
x10_32 0
x10_33 0
x11_12 1
x11_13 1
x11_14 0
x11_15 0
x11_16 0
x11_17 1
x11_18 0
x11_19 1
x11_20 0
x11_21 1
x11_22 0
x11_23 0
x11_24 0
x11_25 0
x11_26 0
x11_27 0
x11_28 0
x11_29 0
x11_30 0
x11_31 0
x11_32 0
x11_33 0
x12_13 1
x12_14 0
x12_15 0
x12_16 0
x12_17 1
x12_18 0
x12_19 1
x12_20 0
x12_21 1
x12_22 0
x12_23 0
x12_24 0
x12_25 0
x12_26 0
x12_27 0
x12_28 0
x12_29 0
x12_30 0
x12_31 0
x12_32 0
x12_33 0
x13_14 0
x13_15 0
x13_16 0
x13_17 1
x13_18 0
x13_19 1
x13_20 0
x13_21 1
x13_22 0
x13_23 0
x13_24 0
x13_25 0
x13_26 0
x13_27 0
x13_28 0
x13_29 0
x13_30 0
x13_31 0
x13_32 0
x13_33 0
x14_15 1
x14_16 0
x14_17 0
x14_18 1
x14_19 0
x14_20 1
x14_21 0
x14_22 1
x14_23 0
x14_24 0
x14_25 0
x14_26 1
x14_27 0
x14_28 0
x14_29 1
x14_30 1
x14_31 0
x14_32 1
x14_33 1
x15_16 0
x15_17 0
x15_18 1
x15_19 0
x15_20 1
x15_21 0
x15_22 1
x15_23 0
x15_24 0
x15_25 0
x15_26 1
x15_27 0
x15_28 0
x15_29 1
x15_30 1
x15_31 0
x15_32 1
x15_33 1
x16_17 0
x16_18 0
x16_19 0
x16_20 0
x16_21 0
x16_22 0
x16_23 0
x16_24 0
x16_25 0
x16_26 0
x16_27 0
x16_28 0
x16_29 0
x16_30 0
x16_31 0
x16_32 0
x16_33 0
x17_18 0
x17_19 1
x17_20 0
x17_21 1
x17_22 0
x17_23 0
x17_24 0
x17_25 0
x17_26 0
x17_27 0
x17_28 0
x17_29 0
x17_30 0
x17_31 0
x17_32 0
x17_33 0
x18_19 0
x18_20 1
x18_21 0
x18_22 1
x18_23 0
x18_24 0
x18_25 0
x18_26 1
x18_27 0
x18_28 0
x18_29 1
x18_30 1
x18_31 0
x18_32 1
x18_33 1
x19_20 0
x19_21 1
x19_22 0
x19_23 0
x19_24 0
x19_25 0
x19_26 0
x19_27 0
x19_28 0
x19_29 0
x19_30 0
x19_31 0
x19_32 0
x19_33 0
x20_21 0
x20_22 1
x20_23 0
x20_24 0
x20_25 0
x20_26 1
x20_27 0
x20_28 0
x20_29 1
x20_30 1
x20_31 0
x20_32 1
x20_33 1
x21_22 0
x21_23 0
x21_24 0
x21_25 0
x21_26 0
x21_27 0
x21_28 0
x21_29 0
x21_30 0
x21_31 0
x21_32 0
x21_33 0
x22_23 0
x22_24 0
x22_25 0
x22_26 1
x22_27 0
x22_28 0
x22_29 1
x22_30 1
x22_31 0
x22_32 1
x22_33 1
x23_24 1
x23_25 1
x23_26 0
x23_27 1
x23_28 1
x23_29 0
x23_30 0
x23_31 1
x23_32 0
x23_33 0
x24_25 1
x24_26 0
x24_27 1
x24_28 1
x24_29 0
x24_30 0
x24_31 1
x24_32 0
x24_33 0
x25_26 0
x25_27 1
x25_28 1
x25_29 0
x25_30 0
x25_31 1
x25_32 0
x25_33 0
x26_27 0
x26_28 0
x26_29 1
x26_30 1
x26_31 0
x26_32 1
x26_33 1
x27_28 1
x27_29 0
x27_30 0
x27_31 1
x27_32 0
x27_33 0
x28_29 0
x28_30 0
x28_31 1
x28_32 0
x28_33 0
x29_30 1
x29_31 0
x29_32 1
x29_33 1
x30_31 0
x30_32 1
x30_33 1
x31_32 0
x31_33 0
x32_33 1
